peakDumbCharging = 7400; 
Machine = anon_enum(16); 
machineSpeed = [3700,3700,3700,3700,3700,3700,3700,3700,3700,3700,3700,3700,3700,3700,3700,3700]; 
machineLoad = [3700,3700,3700,3700,3700,3700,3700,3700,3700,3700,3700,3700,3700,3700,3700,3700]; 
Car = anon_enum(7); 
demandCar = [22840,3000,3640,14320,4120,3080,20880]; 
arrivalCar = [70,67,65,59,58,50,50]; 
departureCar = [79,69,67,64,60,52,58]; 
